qe/outputs/qe/qe_queries/T=5,eliminate=[I_0,I_1,I_2,I_3,I_4,L_3,L_4,C,B].smt2
; benchmark generated from python API
(set-info :status unknown)
(declare-fun S_1 () Real)
(declare-fun S_2 () Real)
(declare-fun S_3 () Real)
(declare-fun S_4 () Real)
(declare-fun L_2 () Real)
(declare-fun A_3 () Real)
(declare-fun A_2 () Real)
(declare-fun A_1 () Real)
(declare-fun L_1 () Real)
(declare-fun A_4 () Real)
(declare-fun S_0 () Real)
(declare-fun L_0 () Real)
(declare-fun A_0 () Real)
(assert
 (let ((?x9461 (* (/ 1.0 2.0) A_3)))
 (let ((?x5161 (* (- (/ 1.0 2.0)) A_0)))
 (let ((?x1310 (* (- 1.0) S_3)))
 (let ((?x9459 (* (- (/ 1.0 2.0)) A_4)))
 (let ((?x5186 (* (/ 1.0 2.0) S_4)))
 (let ((?x5846 (* (/ 1.0 2.0) A_1)))
 (let ((?x9193 (* (/ 1.0 3.0) A_3)))
 (let ((?x894 (* (- 1.0) A_1)))
 (let ((?x1876 (* (/ 4.0 3.0) L_1)))
 (let ((?x9191 (* (/ 1.0 3.0) S_0)))
 (let ((?x2704 (* (- (/ 1.0 3.0)) A_4)))
 (let ((?x2115 (* (- (/ 2.0 3.0)) L_0)))
 (let ((?x2075 (* (/ 1.0 3.0) A_0)))
 (let ((?x1829 (* (/ 1.0 3.0) S_4)))
 (let ((?x1336 (* 2.0 A_2)))
 (let ((?x1363 (* (- 2.0) A_1)))
 (let ((?x1339 (* 2.0 L_1)))
 (let ((?x1335 (* (- 2.0) L_2)))
 (let ((?x741 (* (- 1.0) L_0)))
 (let (($x3895 (<= (+ A_0 ?x741 ?x1310 ?x1335 ?x1339 ?x1363 ?x1336) 0.0)))
 (let (($x1569 (<= (+ A_2 (* (- 1.0) L_2) ?x1310) 0.0)))
 (let ((?x750 (* (- 1.0) L_1)))
 (let (($x688 (= ?x750 ?x741)))
 (let (($x32269 (or $x688 $x1569 $x3895 (<= (+ ?x1829 ?x2075 ?x2115 ?x2704 ?x9191 ?x1876 ?x894 ?x9193) 0.0) (<= (+ ?x5846 ?x5186 ?x9459 ?x1310 (* (/ 1.0 2.0) S_0) ?x5161 ?x9461) 0.0))))
 (let (($x9181 (<= (+ ?x1829 ?x2075 ?x2115 ?x2704 (* (- 1.0) S_2) ?x9191 (* (/ 1.0 3.0) L_1) ?x9193) 0.0)))
 (let ((?x6967 (* (- (/ 1.0 2.0)) A_1)))
 (let ((?x6977 (* (/ 1.0 2.0) L_1)))
 (let ((?x1592 (* (- 1.0) S_2)))
 (let (($x1588 (<= (+ ?x750 A_1 ?x1592) 0.0)))
 (let (($x30318 (or $x688 $x1588 (<= (+ ?x5186 A_0 ?x741 ?x9459 ?x1592 ?x6977 ?x6967 ?x9461) 0.0) $x9181)))
 (let ((?x981 (* (- 1.0) A_0)))
 (let ((?x759 (* (- 1.0) L_2)))
 (let ((?x5151 (* (- (/ 1.0 2.0)) S_4)))
 (let ((?x6754 (* (/ 3.0 2.0) L_1)))
 (let ((?x752 (* (- 1.0) A_2)))
 (let ((?x1348 (* 2.0 A_1)))
 (let ((?x1305 (* (- 2.0) L_1)))
 (let (($x1638 (<= (+ A_3 (* (- 1.0) A_4)) 0.0)))
 (let (($x55240 (or $x688 $x1638 (not (<= (+ ?x1305 ?x1348 L_0 L_2 ?x981 ?x752) 0.0)) (<= (+ ?x6754 ?x6967 ?x5151 S_0 ?x759 ?x981 A_2) 0.0))))
 (let (($x9225 (<= (+ ?x981 (* (- 1.0) A_4) S_0 L_1 A_3) 0.0)))
 (let (($x8888 (<= (+ L_1 ?x894 S_4 (* (- 1.0) A_4) ?x741 L_2 A_0 ?x752 A_3) 0.0)))
 (let (($x14155 (<= (+ ?x752 L_2 S_4 (* (- 1.0) A_4) ?x1592 ?x741 S_0 L_1 A_3) 0.0)))
 (let ((?x9493 (* (/ 3.0 2.0) A_3)))
 (let ((?x7024 (* (- (/ 3.0 2.0)) A_1)))
 (let ((?x9476 (* (- (/ 3.0 2.0)) A_4)))
 (let (($x30038 (or $x688 $x1638 $x9225 (<= (+ ?x5186 A_0 ?x741 ?x9476 ?x6754 ?x7024 ?x9493) 0.0))))
 (let (($x11955 (<= (+ A_2 ?x759 (* (- 1.0) S_4) ?x981 L_0 S_1) 0.0)))
 (let ((?x1228 (* (- 4.0) A_0)))
 (let ((?x1294 (* (- 2.0) S_4)))
 (let (($x2523 (<= (+ ?x1294 ?x1228 (* 4.0 L_0) (* 6.0 S_1)) 0.0)))
 (let ((?x1317 (* 3.0 L_2)))
 (let ((?x1327 (* (- 1.0) S_1)))
 (let ((?x1356 (* 2.0 A_0)))
 (let ((?x1468 (* 2.0 S_4)))
 (let ((?x1368 (* (- 2.0) A_3)))
 (let (($x6055 (<= (+ ?x750 L_2) 0.0)))
 (let ((?x1306 (* 2.0 L_2)))
 (let ((?x840 (* (- 1.0) A_3)))
 (let (($x2362 (<= (+ ?x750 ?x1327 A_0) 0.0)))
 (let (($x54036 (or $x2362 (<= (+ ?x840 S_4 ?x1305 A_1 ?x1327 ?x1306 A_0 ?x752) 0.0) $x6055 (<= (+ ?x1368 ?x1468 ?x1356 ?x741 ?x1327 ?x750 ?x1317 ?x752) 0.0))))
 (let (($x10132 (<= (+ ?x1368 ?x1468 A_0 ?x1310 ?x741 ?x1306) 0.0)))
 (let (($x12764 (<= (+ ?x752 L_2 S_4 ?x1356 (* (- 2.0) S_2) (* (- 2.0) L_0)) 0.0)))
 (let (($x7245 (<= (+ (* (- (/ 2.0 3.0)) S_4) (* (- (/ 1.0 3.0)) A_0) (* (/ 1.0 3.0) L_0) S_2) 0.0)))
 (let (($x2513 (<= (+ A_3 (* (- 1.0) S_4) ?x759) 0.0)))
 (let (($x5211 (<= (+ ?x5186 (* (/ 3.0 2.0) A_0) (* (- (/ 1.0 2.0)) L_0) ?x1327 L_2 ?x750 ?x752) 0.0)))
 (let (($x1857 (<= (+ (* (- (/ 5.0 3.0)) L_1) (* (/ 2.0 3.0) A_1) ?x1829 ?x1327 L_2 A_0 ?x752) 0.0)))
 (let (($x2921 (<= (+ L_1 ?x894 (* (- 1.0) S_4) (* 2.0 S_2)) 0.0)))
 (let ((?x1351 (* 2.0 A_3)))
 (let ((?x1318 (* (- 3.0) A_2)))
 (let ((?x1347 (* (- 2.0) A_4)))
 (let ((?x1307 (* (- 2.0) A_2)))
 (let ((?x762 (* (- 1.0) A_4)))
 (let (($x53406 (or $x2362 $x6055 (<= (+ ?x1305 A_1 S_4 ?x762 ?x1327 ?x1306 A_0 ?x1307 A_3) 0.0) (<= (+ ?x1468 ?x1356 ?x741 ?x1347 ?x1327 ?x750 ?x1317 ?x1318 ?x1351) 0.0))))
 (let ((?x2052 (* (/ 2.0 3.0) S_3)))
 (let ((?x2111 (* (/ 2.0 3.0) L_0)))
 (let ((?x2110 (* (- (/ 2.0 3.0)) A_0)))
 (let (($x2121 (<= (+ ?x2110 ?x2111 ?x2052 ?x1306 ?x1305 ?x1348 ?x1307) 0.0)))
 (let (($x6360 (<= (+ ?x741 L_1) 0.0)))
 (let ((?x1224 (* 3.0 A_2)))
 (let ((?x3614 (* (- 3.0) A_1)))
 (let ((?x1231 (* 3.0 L_1)))
 (let ((?x863 (* (- 3.0) L_2)))
 (let ((?x1637 (* (- 1.0) S_4)))
 (let (($x3965 (<= (+ ?x1637 A_0 ?x741 ?x863 ?x1231 ?x3614 ?x1224) 0.0)))
 (let (($x2554 (<= (+ ?x1231 ?x894 ?x1637 (* 2.0 S_0) ?x1335 (* (- 2.0) A_0) ?x1336) 0.0)))
 (let ((?x2054 (* (- (/ 1.0 3.0)) L_0)))
 (let ((?x2097 (* (- (/ 1.0 3.0)) A_0)))
 (let ((?x1862 (* (/ 2.0 3.0) S_4)))
 (let ((?x9203 (+ ?x1862 ?x2097 ?x2054 (* (- (/ 2.0 3.0)) A_4) ?x1310 (* (/ 2.0 3.0) S_0) (* (/ 2.0 3.0) L_1) (* (/ 2.0 3.0) A_3))))
 (let (($x54147 (or $x688 $x1569 (<= (+ ?x1305 ?x1348 ?x1310 L_0 ?x981) 0.0) (<= ?x9203 0.0) (<= (+ S_4 A_0 ?x741 ?x762 ?x1310 L_1 ?x894 A_3) 0.0))))
 (let (($x881 (<= (+ ?x1294 ?x1228 L_0 (* 3.0 S_0) ?x1231 ?x863 ?x1224) 0.0)))
 (let (($x5225 (<= (+ ?x5186 ?x5161 (* (/ 1.0 2.0) L_0) ?x1306 ?x1305 ?x1348 ?x1307) 0.0)))
 (let (($x14972 (<= (+ ?x1368 ?x1468 ?x1356 (* (- 2.0) L_0) (* (- 2.0) S_2) ?x1306) 0.0)))
 (let (($x6777 (<= (+ ?x750 A_1 S_4 ?x762 ?x1306 ?x1307 A_3) 0.0)))
 (let (($x3839 (<= (+ ?x981 L_0 S_1 L_2 ?x750 A_1 ?x752) 0.0)))
 (let (($x3376 (<= (+ ?x981 L_0 (* 2.0 S_1) L_2 ?x752) 0.0)))
 (let (($x53551 (or $x1588 $x2513 (not $x3376) (<= (+ (* (- (/ 1.0 3.0)) S_4) ?x2110 ?x2111 S_1) 0.0))))
 (let ((?x1330 (* 2.0 S_1)))
 (let ((?x1333 (* (- 2.0) A_0)))
 (let (($x32399 (or $x1569 (<= (+ ?x1333 (* 2.0 L_0) ?x1330 ?x1306 ?x1305 ?x1348 ?x1307) 0.0) $x6055)))
 (let (($x6997 (<= (+ (* (- (/ 3.0 2.0)) L_1) ?x5846 (* (/ 1.0 2.0) S_3) ?x1327 L_2 A_0 ?x752) 0.0)))
 (let (($x2125 (<= (+ (* (/ 4.0 3.0) A_0) (* (- (/ 4.0 3.0)) L_0) ?x2052 ?x1339 ?x1363) 0.0)))
 (let (($x54537 (or (not $x2125) (<= (+ (* (/ 4.0 3.0) A_0) ?x2054 ?x2052 ?x1327 L_2 ?x750 ?x752) 0.0) $x2362 $x6055)))
 (let (($x6228 (<= (+ (* (/ 1.0 2.0) A_0) (* (/ 1.0 2.0) S_3) (* (- (/ 1.0 2.0)) L_0) L_1 ?x894) 0.0)))
 (let (($x6741 (not $x6228)))
 (let (($x15477 (or $x1569 (<= (+ ?x5186 (* (/ 1.0 2.0) A_0) (* (- (/ 1.0 2.0)) L_0) ?x1310) 0.0) $x6741)))
 (let (($x9857 (<= (+ ?x1468 ?x1356 (* (- 2.0) L_0) ?x1347 (* (- 2.0) S_2) ?x1306 ?x1307 ?x1351) 0.0)))
 (let (($x29348 (or $x688 (<= (+ ?x741 (* (- 2.0) S_2) S_0 L_1 ?x759 A_2) 0.0) $x1588 (<= (+ A_0 ?x741 ?x1592 ?x759 L_1 ?x894 A_2) 0.0))))
 (let (($x36520 (or $x1569 $x6055 $x6741 (<= (+ ?x1468 A_0 ?x741 ?x1347 ?x1310 ?x1306 ?x1307 ?x1351) 0.0))))
 (let (($x31609 (or $x1569 $x6055 $x6228 (<= (+ ?x750 A_1 S_4 ?x762 ?x1310 L_2 ?x752 A_3) 0.0))))
 (let (($x29076 (or $x688 (not (<= (+ ?x981 S_0 L_1) 0.0)) (<= (+ ?x981 ?x1310 S_0 L_1 ?x759 A_2) 0.0) $x3895)))
 (let ((?x9828 (* 6.0 A_3)))
 (let ((?x9851 (* (- 6.0) A_2)))
 (let ((?x9830 (* 6.0 L_2)))
 (let ((?x9850 (* (- 6.0) A_4)))
 (let ((?x1442 (* (- 2.0) L_0)))
 (let ((?x9852 (* 4.0 S_4)))
 (let (($x54268 (or $x1638 $x6055 (<= (+ ?x750 A_1 S_4 ?x1347 ?x1306 ?x1307 ?x1351) 0.0) (<= (+ ?x9852 ?x1356 ?x1442 ?x9850 ?x9830 ?x9851 ?x9828) 0.0))))
 (let (($x5207 (<= (+ ?x5186 (* (/ 3.0 2.0) A_0) (* (- (/ 3.0 2.0)) L_0) (* (- 2.0) S_2)) 0.0)))
 (let (($x2379 (<= (+ ?x981 L_0 S_2 ?x1306 ?x1305 ?x1348 ?x1307) 0.0)))
 (let (($x2062 (<= (+ (* (/ 4.0 3.0) A_0) (* (- (/ 4.0 3.0)) L_0) ?x2052 (* (- 2.0) S_2)) 0.0)))
 (let (($x1893 (<= (+ (* (- (/ 4.0 3.0)) L_1) (* (/ 4.0 3.0) A_1) (* (- (/ 1.0 3.0)) S_4) L_0 ?x981) 0.0)))
 (let (($x2225 (or $x1569 (not $x1893) (<= (+ (* (- (/ 2.0 3.0)) L_1) (* (/ 2.0 3.0) A_1) ?x1829 ?x1310) 0.0))))
 (and (<= ?x750 ?x741) (<= ?x759 ?x750) $x2225 (or $x1588 $x2062) (or (= ?x759 ?x750) (<= (+ A_0 S_2 ?x1327 L_2 ?x750 ?x752) 0.0)) (or $x1569 (<= (+ ?x981 L_0 ?x1310 ?x1330) 0.0)) (or (= ?x759 ?x750) $x1569 (<= (+ ?x981 L_0 S_2 ?x1348 ?x1307) 0.0)) (or $x1569 (not (<= (+ ?x981 L_0 S_2 ?x1348 ?x1307) 0.0)) $x2379) (or $x1588 $x5207) (or (<= (+ ?x981 S_0 L_1) 0.0) $x1569 $x3895) (or $x1638 $x7245) (or $x1638 $x2921) (or $x1569 $x6055 $x6777) (or $x1569 (<= (+ ?x1294 ?x981 L_0 (* 3.0 S_2)) 0.0) $x2513) (or $x1638 $x2379 $x6055) (or $x1569 $x2513 $x2921) $x54268 (or $x688 $x881 $x1638 $x3965) $x29076 (or $x1569 $x6055 (<= (+ ?x840 S_4 ?x750 A_1 ?x1306 ?x752) 0.0)) $x31609 (or $x881 $x1569 $x2513 $x3965 $x6360) (or $x1569 $x2513 $x2523) $x36520 (or $x1588 $x2121 $x6055) (or $x1588 $x5225 $x6055) (or $x1588 $x3839 $x6055) (or $x688 $x2362 $x2513 $x2554 $x3965) $x29348 (or $x1588 $x6055 $x9857) (or $x1588 $x6055 $x6777) (or $x2362 $x2379 $x6055) (or $x2362 $x6055 (<= (+ ?x840 S_4 ?x750 A_1 ?x1306 ?x752) 0.0)) $x15477 (or $x1569 $x6741 $x10132) (or $x881 $x1588 $x2513 $x3965 $x6360) (or $x2362 $x5225 $x6055) (or $x2362 $x6055 $x6777) (or $x1638 $x2121 $x6055) $x54537 (or $x2125 $x2362 $x6055 $x6997) $x32399 (or $x1588 $x2513 $x7245) (or $x1588 $x2513 $x2523 $x6055) $x53551 (or $x1588 $x2513 $x3376 $x11955) (or $x1588 (<= (+ ?x752 L_2 S_3 A_0 ?x1592 ?x741) 0.0)) (or $x1638 $x3839 $x6055) (or $x1638 $x6055 $x6777) (or $x1588 $x14972) (or $x1588 $x6055 (<= (+ ?x840 S_4 ?x750 A_1 ?x1306 ?x752) 0.0)) (or $x1569 $x5225 $x6055) (or $x881 $x2362 $x2513 $x3965 $x6360) $x54147 (or $x1569 $x2513 $x2554 $x3965 $x6360) (or $x2121 $x2362 $x6055) $x53406 (or $x2362 $x2513 $x2921) (or $x1857 $x2362 $x5211 $x6055) (or $x2362 $x2513 $x7245) (or $x1588 $x12764) (or $x1569 (<= (+ ?x840 S_4 ?x750 A_1 ?x1310 L_2) 0.0) $x10132) $x54036 (or $x1638 $x2523 $x11955) $x30038 (or $x688 $x1588 $x8888 $x14155) (or $x688 $x1638 $x8888 $x9225) $x55240 $x30318 $x32269 (<= (+ ?x981 L_0 S_0) 0.0) (<= (+ ?x1327 S_0) 0.0) (<= (+ S_4 ?x762 L_2) 0.0) (<= (+ L_1 ?x894 S_1) 0.0) (<= (+ ?x752 L_2 S_2) 0.0) (<= (+ ?x840 L_2 S_3) 0.0) (<= (+ ?x1637 S_3) 0.0) (<= (+ ?x1310 S_2) 0.0) (<= (+ (* (- 2.0) S_2) ?x1330) 0.0))))))))))))))))))))))))))))))))))))))))))))))))))))))))))))))))))))))))))))))))))))))))))))))))))))))))))))))))))))))))))))))
(check-sat)
