qe/outputs/qe/qe_queries/T=5,eliminate=[I_0,I_1,I_2,I_3,I_4,L_3,L_4,C,B].smt2.z3
[And(-1*L_1 <= -1*L_0,
     -1*L_2 <= -1*L_1,
     Or(A_2 + -1*L_2 + -1*S_3 <= 0,
        Not(-(4/3)*L_1 +
            (4/3)*A_1 +
            -(1/3)*S_4 +
            L_0 +
            -1*A_0 <=
            0),
        -(2/3)*L_1 + (2/3)*A_1 + (1/3)*S_4 + -1*S_3 <= 0),
     Or(-1*L_1 + A_1 + -1*S_2 <= 0,
        (4/3)*A_0 + -(4/3)*L_0 + (2/3)*S_3 + -2*S_2 <= 0),
     Or(-1*L_2 == -1*L_1,
        A_0 + S_2 + -1*S_1 + L_2 + -1*L_1 + -1*A_2 <= 0),
     Or(A_2 + -1*L_2 + -1*S_3 <= 0,
        -1*A_0 + L_0 + -1*S_3 + 2*S_1 <= 0),
     Or(-1*L_2 == -1*L_1,
        A_2 + -1*L_2 + -1*S_3 <= 0,
        -1*A_0 + L_0 + S_2 + 2*A_1 + -2*A_2 <= 0),
     Or(A_2 + -1*L_2 + -1*S_3 <= 0,
        Not(-1*A_0 + L_0 + S_2 + 2*A_1 + -2*A_2 <= 0),
        -1*A_0 + L_0 + S_2 + 2*L_2 + -2*L_1 + 2*A_1 + -2*A_2 <=
        0),
     Or(-1*L_1 + A_1 + -1*S_2 <= 0,
        (1/2)*S_4 + (3/2)*A_0 + -(3/2)*L_0 + -2*S_2 <= 0),
     Or(-1*A_0 + S_0 + L_1 <= 0,
        A_2 + -1*L_2 + -1*S_3 <= 0,
        A_0 +
        -1*L_0 +
        -1*S_3 +
        -2*L_2 +
        2*L_1 +
        -2*A_1 +
        2*A_2 <=
        0),
     Or(A_3 + -1*A_4 <= 0,
        -(2/3)*S_4 + -(1/3)*A_0 + (1/3)*L_0 + S_2 <= 0),
     Or(A_3 + -1*A_4 <= 0,
        L_1 + -1*A_1 + -1*S_4 + 2*S_2 <= 0),
     Or(A_2 + -1*L_2 + -1*S_3 <= 0,
        -1*L_1 + L_2 <= 0,
        -1*L_1 + A_1 + S_4 + -1*A_4 + 2*L_2 + -2*A_2 + A_3 <=
        0),
     Or(A_2 + -1*L_2 + -1*S_3 <= 0,
        -2*S_4 + -1*A_0 + L_0 + 3*S_2 <= 0,
        A_3 + -1*S_4 + -1*L_2 <= 0),
     Or(A_3 + -1*A_4 <= 0,
        -1*A_0 + L_0 + S_2 + 2*L_2 + -2*L_1 + 2*A_1 + -2*A_2 <=
        0,
        -1*L_1 + L_2 <= 0),
     Or(A_2 + -1*L_2 + -1*S_3 <= 0,
        A_3 + -1*S_4 + -1*L_2 <= 0,
        L_1 + -1*A_1 + -1*S_4 + 2*S_2 <= 0),
     Or(A_3 + -1*A_4 <= 0,
        -1*L_1 + L_2 <= 0,
        -1*L_1 + A_1 + S_4 + -2*A_4 + 2*L_2 + -2*A_2 + 2*A_3 <=
        0,
        4*S_4 +
        2*A_0 +
        -2*L_0 +
        -6*A_4 +
        6*L_2 +
        -6*A_2 +
        6*A_3 <=
        0),
     Or(-1*L_1 == -1*L_0,
        -2*S_4 +
        -4*A_0 +
        L_0 +
        3*S_0 +
        3*L_1 +
        -3*L_2 +
        3*A_2 <=
        0,
        A_3 + -1*A_4 <= 0,
        -1*S_4 +
        A_0 +
        -1*L_0 +
        -3*L_2 +
        3*L_1 +
        -3*A_1 +
        3*A_2 <=
        0),
     Or(-1*L_1 == -1*L_0,
        Not(-1*A_0 + S_0 + L_1 <= 0),
        -1*A_0 + -1*S_3 + S_0 + L_1 + -1*L_2 + A_2 <= 0,
        A_0 +
        -1*L_0 +
        -1*S_3 +
        -2*L_2 +
        2*L_1 +
        -2*A_1 +
        2*A_2 <=
        0),
     Or(A_2 + -1*L_2 + -1*S_3 <= 0,
        -1*L_1 + L_2 <= 0,
        -1*A_3 + S_4 + -1*L_1 + A_1 + 2*L_2 + -1*A_2 <= 0),
     Or(A_2 + -1*L_2 + -1*S_3 <= 0,
        -1*L_1 + L_2 <= 0,
        (1/2)*A_0 + (1/2)*S_3 + -(1/2)*L_0 + L_1 + -1*A_1 <=
        0,
        -1*L_1 +
        A_1 +
        S_4 +
        -1*A_4 +
        -1*S_3 +
        L_2 +
        -1*A_2 +
        A_3 <=
        0),
     Or(-2*S_4 +
        -4*A_0 +
        L_0 +
        3*S_0 +
        3*L_1 +
        -3*L_2 +
        3*A_2 <=
        0,
        A_2 + -1*L_2 + -1*S_3 <= 0,
        A_3 + -1*S_4 + -1*L_2 <= 0,
        -1*S_4 +
        A_0 +
        -1*L_0 +
        -3*L_2 +
        3*L_1 +
        -3*A_1 +
        3*A_2 <=
        0,
        -1*L_0 + L_1 <= 0),
     Or(A_2 + -1*L_2 + -1*S_3 <= 0,
        A_3 + -1*S_4 + -1*L_2 <= 0,
        -2*S_4 + -4*A_0 + 4*L_0 + 6*S_1 <= 0),
     Or(A_2 + -1*L_2 + -1*S_3 <= 0,
        -1*L_1 + L_2 <= 0,
        Not((1/2)*A_0 +
            (1/2)*S_3 +
            -(1/2)*L_0 +
            L_1 +
            -1*A_1 <=
            0),
        2*S_4 +
        A_0 +
        -1*L_0 +
        -2*A_4 +
        -1*S_3 +
        2*L_2 +
        -2*A_2 +
        2*A_3 <=
        0),
     Or(-1*L_1 + A_1 + -1*S_2 <= 0,
        -(2/3)*A_0 +
        (2/3)*L_0 +
        (2/3)*S_3 +
        2*L_2 +
        -2*L_1 +
        2*A_1 +
        -2*A_2 <=
        0,
        -1*L_1 + L_2 <= 0),
     Or(-1*L_1 + A_1 + -1*S_2 <= 0,
        (1/2)*S_4 +
        -(1/2)*A_0 +
        (1/2)*L_0 +
        2*L_2 +
        -2*L_1 +
        2*A_1 +
        -2*A_2 <=
        0,
        -1*L_1 + L_2 <= 0),
     Or(-1*L_1 + A_1 + -1*S_2 <= 0,
        -1*A_0 + L_0 + S_1 + L_2 + -1*L_1 + A_1 + -1*A_2 <=
        0,
        -1*L_1 + L_2 <= 0),
     Or(-1*L_1 == -1*L_0,
        -1*L_1 + -1*S_1 + A_0 <= 0,
        A_3 + -1*S_4 + -1*L_2 <= 0,
        3*L_1 +
        -1*A_1 +
        -1*S_4 +
        2*S_0 +
        -2*L_2 +
        -2*A_0 +
        2*A_2 <=
        0,
        -1*S_4 +
        A_0 +
        -1*L_0 +
        -3*L_2 +
        3*L_1 +
        -3*A_1 +
        3*A_2 <=
        0),
     Or(-1*L_1 == -1*L_0,
        -1*L_0 + -2*S_2 + S_0 + L_1 + -1*L_2 + A_2 <= 0,
        -1*L_1 + A_1 + -1*S_2 <= 0,
        A_0 + -1*L_0 + -1*S_2 + -1*L_2 + L_1 + -1*A_1 + A_2 <=
        0),
     Or(-1*L_1 + A_1 + -1*S_2 <= 0,
        -1*L_1 + L_2 <= 0,
        2*S_4 +
...